n_students = 100;
n_companies = 15;


best_expectations = [3, 4, 3, 5, 4, 4, 3, 4, 3, 4, 3, 6, 6, 6, 4, 5, 5, 3, 4, 4, 3, 4, 5, 6, 4, 3, 5, 3, 5, 4, 5, 5, 4, 3, 6, 4, 4, 3, 5, 4, 3, 3, 3, 3, 5, 4, 4, 5, 3, 5, 3, 4, 3, 4, 3, 6, 5, 5, 5, 5, 3, 6, 6, 4, 4, 4, 5, 4, 3, 3, 3, 3, 3, 3, 3, 4, 6, 4, 5, 3, 5, 4, 4, 4, 4, 3, 5, 5, 4, 3, 6, 3, 4, 4, 4, 4, 5, 4, 3, 4];
preferences = 
 [|2, 3, 4, 1, 1, 3, 3, 5, 3, 3, 1, 1, 5, 1, 4
  |5, 2, 2, 5, 1, 1, 3, 2, 4, 3, 2, 5, 5, 5, 5
  |1, 3, 4, 2, 2, 1, 3, 2, 5, 2, 5, 1, 2, 5, 4
  |5, 3, 4, 2, 4, 2, 5, 5, 1, 5, 5, 2, 5, 4, 5
  |2, 5, 5, 1, 1, 2, 4, 2, 4, 2, 4, 2, 3, 3, 3
  |2, 4, 5, 5, 1, 3, 5, 4, 1, 3, 5, 3, 4, 3, 3
  |3, 4, 1, 1, 1, 1, 4, 3, 4, 5, 5, 1, 5, 3, 4
  |5, 4, 1, 2, 1, 3, 3, 5, 5, 5, 4, 3, 5, 2, 5
  |5, 2, 3, 1, 1, 3, 1, 2, 3, 5, 3, 5, 1, 3, 5
  |2, 1, 3, 5, 1, 4, 3, 5, 4, 5, 5, 5, 5, 2, 2
  |4, 3, 3, 1, 1, 4, 1, 5, 5, 4, 5, 1, 1, 3, 1
  |5, 4, 5, 4, 2, 1, 3, 5, 3, 3, 5, 4, 5, 5, 4
  |3, 5, 3, 5, 4, 4, 5, 3, 5, 2, 2, 3, 5, 3, 2
  |2, 4, 5, 4, 3, 2, 3, 2, 5, 4, 4, 2, 3, 5, 3
  |2, 3, 5, 5, 3, 1, 3, 5, 5, 5, 3, 2, 1, 5, 4
  |5, 2, 5, 5, 1, 5, 3, 3, 4, 4, 4, 5, 2, 2, 2
  |2, 2, 3, 5, 4, 4, 3, 5, 5, 1, 4, 4, 4, 3, 4
  |5, 2, 4, 1, 1, 1, 3, 5, 3, 5, 5, 4, 4, 3, 3
  |5, 5, 3, 5, 2, 1, 5, 1, 3, 3, 5, 4, 5, 2, 5
  |2, 5, 3, 1, 1, 4, 2, 5, 2, 2, 2, 4, 3, 5, 2
  |1, 5, 1, 1, 3, 2, 3, 2, 5, 3, 5, 2, 3, 5, 4
  |3, 2, 3, 3, 4, 2, 5, 5, 1, 3, 2, 5, 1, 2, 5
  |3, 4, 4, 1, 2, 2, 5, 2, 4, 3, 4, 3, 5, 3, 4
  |2, 4, 5, 3, 2, 3, 5, 5, 5, 5, 2, 4, 4, 2, 4
  |3, 2, 4, 3, 4, 1, 5, 5, 3, 5, 5, 1, 3, 2, 3
  |3, 1, 2, 5, 1, 5, 3, 4, 3, 5, 5, 5, 1, 3, 5
  |5, 5, 2, 1, 2, 2, 5, 2, 5, 3, 2, 3, 5, 3, 3
  |1, 5, 4, 1, 1, 4, 5, 2, 5, 2, 3, 4, 3, 2, 1
  |5, 2, 3, 4, 1, 2, 4, 5, 3, 5, 5, 2, 4, 2, 5
  |5, 4, 4, 4, 1, 1, 3, 2, 2, 5, 5, 4, 3, 2, 4
  |2, 5, 2, 3, 1, 2, 2, 5, 2, 5, 3, 2, 5, 2, 5
  |2, 3, 4, 2, 3, 1, 5, 2, 3, 4, 4, 2, 2, 2, 5
  |4, 5, 2, 5, 1, 4, 5, 3, 3, 5, 4, 5, 1, 2, 5
  |2, 2, 1, 2, 1, 4, 5, 5, 5, 2, 5, 1, 2, 5, 4
  |4, 5, 3, 3, 2, 4, 5, 2, 3, 2, 5, 3, 5, 3, 2
  |5, 4, 2, 5, 2, 1, 3, 4, 2, 5, 3, 1, 5, 3, 5
  |3, 2, 2, 5, 5, 1, 5, 1, 2, 3, 4, 4, 3, 5, 3
  |3, 4, 1, 5, 1, 4, 5, 5, 5, 3, 2, 2, 1, 3, 2
  |2, 5, 5, 4, 1, 3, 3, 5, 5, 5, 2, 2, 5, 5, 2
  |5, 3, 5, 3, 1, 5, 5, 2, 5, 2, 2, 1, 5, 2, 5
  |5, 2, 2, 2, 1, 1, 1, 3, 4, 5, 1, 1, 3, 2, 5
  |2, 3, 3, 1, 1, 1, 5, 4, 5, 3, 4, 5, 2, 3, 3
  |3, 3, 5, 1, 1, 4, 3, 2, 3, 3, 3, 1, 2, 2, 2
  |1, 5, 5, 2, 4, 5, 3, 3, 1, 3, 2, 4, 1, 5, 5
  |3, 3, 4, 5, 2, 2, 5, 1, 5, 3, 3, 4, 3, 3, 4
  |2, 2, 3, 1, 1, 2, 3, 5, 3, 5, 5, 5, 5, 4, 5
  |4, 3, 5, 5, 1, 5, 3, 2, 1, 5, 5, 5, 3, 2, 5
  |3, 2, 2, 4, 4, 3, 3, 5, 3, 3, 1, 3, 5, 3, 4
  |2, 2, 5, 1, 1, 2, 5, 3, 4, 4, 5, 3, 3, 2, 1
  |4, 2, 1, 3, 3, 3, 5, 5, 5, 5, 5, 4, 3, 5, 2
  |4, 5, 4, 4, 4, 1, 1, 4, 2, 4, 1, 1, 5, 5, 4
  |2, 4, 4, 3, 3, 5, 5, 5, 3, 1, 5, 2, 3, 3, 1
  |2, 5, 2, 2, 1, 2, 4, 4, 5, 5, 1, 1, 1, 3, 1
  |3, 5, 1, 1, 3, 4, 3, 2, 5, 4, 4, 2, 3, 5, 4
  |5, 3, 3, 1, 1, 2, 4, 5, 5, 5, 1, 4, 5, 1, 2
  |3, 2, 4, 2, 2, 2, 3, 5, 4, 5, 3, 2, 5, 3, 2
  |5, 4, 3, 3, 1, 4, 5, 4, 5, 3, 5, 1, 5, 3, 3
  |3, 3, 2, 2, 4, 2, 3, 5, 2, 2, 4, 2, 5, 5, 1
  |3, 5, 3, 5, 3, 2, 3, 2, 2, 1, 2, 2, 3, 2, 2
  |5, 2, 4, 4, 1, 4, 3, 3, 4, 3, 4, 5, 3, 2, 5
  |5, 5, 5, 3, 2, 5, 5, 4, 2, 4, 2, 1, 1, 1, 1
  |5, 5, 2, 2, 5, 3, 4, 2, 3, 3, 2, 2, 3, 3, 2
  |2, 4, 4, 3, 2, 4, 5, 5, 5, 2, 5, 5, 5, 2, 5
  |5, 5, 3, 1, 2, 5, 5, 4, 1, 5, 5, 4, 5, 5, 4
  |5, 2, 3, 1, 2, 4, 3, 5, 3, 3, 2, 3, 2, 1, 5
  |5, 5, 3, 5, 1, 5, 5, 2, 4, 2, 3, 4, 5, 5, 1
  |5, 3, 2, 4, 3, 1, 5, 4, 2, 4, 4, 5, 4, 3, 2
  |5, 2, 5, 3, 5, 5, 1, 5, 2, 5, 2, 1, 4, 3, 3
  |3, 3, 4, 3, 1, 1, 1, 3, 5, 3, 1, 1, 2, 2, 4
  |5, 5, 3, 1, 1, 1, 5, 5, 5, 5, 4, 5, 5, 3, 4
  |5, 5, 3, 4, 1, 1, 5, 2, 5, 4, 5, 4, 1, 3, 4
  |5, 3, 2, 1, 1, 1, 3, 5, 5, 5, 4, 2, 5, 1, 1
  |1, 3, 1, 5, 4, 1, 5, 3, 5, 5, 5, 4, 3, 3, 4
  |5, 1, 4, 1, 1, 4, 5, 3, 2, 3, 5, 5, 3, 4, 4
  |4, 2, 5, 1, 1, 4, 2, 4, 3, 5, 5, 3, 1, 5, 4
  |2, 1, 4, 5, 2, 1, 2, 5, 5, 5, 4, 4, 4, 3, 5
  |5, 4, 5, 5, 2, 4, 4, 3, 2, 4, 2, 5, 3, 2, 5
  |5, 2, 3, 3, 1, 3, 2, 2, 1, 2, 5, 4, 5, 5, 5
  |1, 4, 5, 4, 2, 3, 5, 5, 5, 5, 4, 3, 3, 2, 3
  |5, 5, 1, 1, 1, 4, 5, 4, 5, 5, 4, 5, 3, 5, 3
  |2, 5, 3, 5, 2, 1, 5, 4, 5, 3, 4, 2, 3, 2, 5
  |2, 5, 4, 5, 1, 5, 1, 4, 5, 2, 5, 2, 2, 5, 5
  |2, 4, 3, 1, 1, 4, 3, 5, 3, 5, 4, 3, 5, 2, 2
  |5, 2, 4, 5, 1, 1, 4, 4, 4, 3, 4, 4, 3, 5, 3
  |2, 4, 3, 3, 1, 4, 1, 5, 5, 5, 4, 4, 3, 3, 4
  |4, 2, 3, 1, 1, 4, 3, 3, 3, 1, 5, 2, 5, 2, 4
  |5, 5, 3, 5, 4, 3, 5, 5, 1, 2, 2, 5, 3, 3, 4
  |2, 3, 2, 1, 3, 3, 5, 4, 2, 4, 2, 2, 4, 3, 5
  |2, 1, 3, 3, 2, 2, 3, 1, 4, 3, 5, 3, 5, 5, 5
  |5, 2, 3, 1, 1, 1, 3, 2, 5, 5, 4, 5, 5, 3, 3
  |2, 2, 5, 4, 4, 5, 3, 4, 5, 3, 4, 2, 4, 5, 2
  |4, 5, 3, 5, 1, 1, 4, 2, 5, 4, 3, 1, 5, 1, 4
  |5, 4, 2, 1, 5, 5, 5, 4, 1, 4, 5, 2, 2, 3, 5
  |2, 2, 4, 1, 3, 2, 1, 4, 5, 5, 4, 4, 3, 2, 2
  |5, 3, 5, 5, 1, 3, 3, 4, 2, 4, 1, 5, 5, 5, 3
  |5, 3, 4, 3, 5, 1, 5, 2, 5, 5, 5, 1, 5, 3, 5
  |2, 5, 5, 1, 5, 2, 3, 4, 4, 3, 4, 4, 3, 2, 5
  |5, 1, 2, 5, 1, 2, 5, 5, 4, 4, 4, 5, 5, 2, 5
  |2, 5, 1, 1, 3, 1, 3, 5, 4, 5, 3, 4, 2, 3, 5
  |5, 3, 1, 4, 2, 5, 3, 1, 4, 2, 5, 5, 3, 3, 3
  |];
  
%fixed_route = [4, 11, 14, 2, 5, 8, 1, 8, 10, 4, 9, 12, 0, 0, 0, 1, 5, 9, 3, 5, 12, 3, 5, 14, 4, 7, 13, 0, 0, 0, 7, 13, 15, 5, 6, 9, 10, 14, 15, 7, 8, 12, 2, 6, 13, 5, 13, 14, 0, 0, 0, 4, 5, 6, 6, 8, 14, 0, 0, 0, 1, 3, 4, 9, 13, 14, 4, 6, 8, 5, 11, 14, 2, 6, 12, 2, 5, 13, 3, 4, 8, 1, 5, 15, 2, 5, 14, 5, 6, 8, 5, 7, 9, 6, 8, 14, 5, 13, 14, 3, 5, 12, 8, 9, 10, 6, 9, 12, 6, 8, 9, 3, 5, 13, 5, 11, 12, 8, 10, 12, 5, 7, 12, 4, 5, 6, 4, 12, 13, 4, 9, 13, 2, 6, 8, 0, 0, 0, 5, 9, 14, 2, 3, 11, 4, 6, 14, 2, 3, 15, 7, 9, 12, 10, 14, 15, 5, 12, 13, 3, 4, 8, 4, 11, 14, 0, 0, 0, 5, 12, 14, 3, 9, 10, 8, 10, 14, 0, 0, 0, 12, 13, 14, 3, 4, 8, 5, 10, 14, 3, 4, 9, 4, 13, 14, 5, 8, 15, 0, 0, 0, 2, 7, 12, 0, 0, 0, 4, 5, 6, 5, 6, 13, 4, 14, 15, 1, 3, 6, 0, 0, 0, 2, 4, 13, 2, 6, 7, 9, 11, 14, 5, 7, 9, 1, 5, 14, 3, 4, 5, 6, 12, 14, 7, 10, 13, 4, 5, 14, 2, 5, 6, 1, 5, 7, 4, 10, 14, 9, 10, 13, 3, 4, 9, 2, 6, 8, 4, 5, 6, 1, 2, 12, 5, 12, 14, 0, 0, 0, 4, 7, 14, 0, 0, 0, 6, 8, 12, 4, 13, 14, 2, 3, 5, 0, 0, 0, 3, 8, 10];


%fixed_time = [19, 1, 11, 17, 18, 4, 3, 11, 6, 20, 19, 8, 0, 0, 0, 3, 14, 17, 11, 19, 1, 10, 20, 9, 19, 6, 5, 0, 0, 0, 7, 11, 12, 11, 10, 18, 2, 13, 10, 8, 6, 7, 18, 13, 8, 18, 6, 8, 0, 0, 0, 20, 11, 9, 15, 11, 16, 0, 0, 0, 1, 5, 16, 20, 6, 5, 16, 15, 9, 14, 4, 15, 17, 6, 2, 15, 11, 4, 3, 15, 2, 4, 9, 11, 16, 12, 5, 11, 14, 3, 12, 5, 17, 14, 1, 17, 13, 1, 7, 10, 14, 12, 9, 20, 2, 11, 16, 5, 5, 4, 13, 2, 19, 10, 18, 2, 4, 1, 4, 6, 20, 1, 2, 16, 10, 8, 14, 10, 3, 18, 16, 12, 17, 16, 8, 0, 0, 0, 9, 20, 10, 20, 8, 2, 14, 8, 6, 16, 7, 10, 2, 19, 12, 1, 14, 9, 17, 1, 4, 5, 20, 7, 15, 4, 18, 0, 0, 0, 17, 4, 19, 1, 14, 3, 5, 7, 19, 0, 0, 0, 5, 9, 7, 8, 17, 7, 15, 5, 18, 9, 15, 14, 18, 7, 20, 15, 3, 11, 0, 0, 0, 20, 2, 8, 0, 0, 0, 17, 20, 7, 16, 9, 3, 20, 11, 12, 4, 12, 7, 0, 0, 0, 19, 16, 9, 14, 12, 6, 17, 3, 20, 19, 1, 18, 2, 17, 14, 7, 13, 15, 10, 3, 13, 4, 3, 5, 19, 10, 15, 15, 13, 5, 1, 16, 4, 17, 7, 12, 19, 1, 2, 1, 13, 18, 13, 16, 5, 19, 12, 11, 2, 16, 10, 20, 3, 12, 0, 0, 0, 13, 5, 10, 0, 0, 0, 13, 8, 9, 17, 7, 9, 15, 6, 17, 0, 0, 0, 2, 12, 6];
  
  
  
min_capacities = [5, 10, 10, 10, 20, 20, 5, 10, 10, 5, 5, 5, 5, 5, 5];
max_capacities = [10, 20, 20, 40, 40, 40, 15, 20, 20, 15, 10, 20, 20, 30, 10];
attendance_costs = [20, 20, 10, 30, 30, 30, 10, 10, 20, 5, 5, 5, 5, 10, 10];
parallel_limits = [2, 3, 2, 4, 4, 2, 2, 2, 3, 2, 2, 2, 2, 2, 2];
slots = 
 [{1, 4, 11, 12, 19},
  {1, 4, 7, 17, 18},
  {3, 6, 11, 12, 20},
  {7, 8, 10, 19, 20},
  {2, 4, 6, 12, 18},
  {3, 5, 8, 14, 17},
  {1, 11, 12, 14, 19},
  {7, 9, 10, 14, 20},
  {5, 6, 10, 12, 19},
  {5, 8, 12, 13, 19},
  {7, 10, 11, 12, 19},
  {7, 10, 11, 18, 20},
  {2, 10, 13, 14, 20},
  {6, 7, 8, 10, 20},
  {8, 13, 15, 18, 19},
  {1, 6, 8, 18, 19},
  {7, 8, 12, 19, 20},
  {2, 3, 9, 11, 20},
  {5, 11, 15, 16, 17},
  {3, 8, 11, 14, 19},
  {1, 5, 14, 16, 19},
  {3, 5, 6, 11, 20},
  {9, 15, 16, 19, 20},
  {4, 9, 14, 15, 19},
  {1, 2, 6, 17, 19},
  {4, 11, 13, 15, 17},
  {2, 3, 13, 14, 15},
  {4, 7, 8, 9, 11},
  {1, 3, 5, 12, 16},
  {3, 7, 8, 11, 14},
  {5, 11, 12, 15, 17},
  {1, 5, 12, 14, 17},
  {1, 5, 7, 8, 13},
  {7, 9, 10, 12, 14},
  {2, 9, 13, 19, 20},
  {1, 5, 11, 13, 16},
  {1, 4, 5, 8, 13},
  {2, 5, 8, 10, 19},
  {2, 4, 14, 15, 18},
  {1, 4, 6, 10, 16},
  {1, 2, 10, 12, 20},
  {8, 9, 10, 13, 16},
  {3, 7, 10, 14, 19},
  {9, 12, 13, 16, 18},
  {8, 12, 14, 16, 17},
  {1, 6, 7, 10, 18},
  {2, 9, 10, 11, 20},
  {2, 8, 13, 15, 20},
  {2, 4, 6, 8, 14},
  {7, 10, 12, 16, 20},
  {2, 12, 13, 18, 19},
  {1, 9, 10, 14, 16},
  {1, 2, 4, 17, 20},
  {2, 5, 7, 12, 20},
  {1, 4, 11, 15, 18},
  {9, 10, 14, 15, 16},
  {1, 4, 12, 17, 19},
  {1, 2, 3, 14, 15},
  {5, 7, 12, 19, 20},
  {4, 6, 10, 11, 18},
  {2, 5, 7, 9, 16},
  {7, 8, 17, 18, 20},
  {5, 10, 11, 15, 18},
  {5, 9, 14, 15, 17},
  {7, 10, 12, 18, 20},
  {1, 3, 11, 15, 16},
  {6, 8, 11, 12, 13},
  {2, 8, 9, 10, 20},
  {1, 2, 3, 11, 15},
  {1, 3, 7, 17, 20},
  {1, 3, 9, 16, 19},
  {4, 8, 11, 12, 20},
  {4, 5, 7, 10, 12},
  {1, 9, 13, 15, 18},
  {7, 9, 12, 16, 19},
  {6, 7, 11, 12, 14},
  {1, 3, 4, 17, 20},
  {1, 5, 7, 18, 19},
  {2, 3, 5, 14, 17},
  {5, 7, 8, 13, 15},
  {3, 7, 10, 13, 20},
  {3, 4, 5, 12, 13},
  {1, 6, 10, 15, 19},
  {5, 7, 13, 15, 20},
  {1, 4, 5, 6, 16},
  {7, 9, 12, 15, 17},
  {1, 2, 12, 16, 19},
  {1, 9, 12, 13, 18},
  {5, 9, 13, 16, 19},
  {4, 11, 12, 18, 19},
  {2, 9, 10, 14, 16},
  {3, 5, 11, 12, 20},
  {2, 4, 9, 10, 13},
  {5, 9, 10, 11, 13},
  {3, 6, 12, 16, 19},
  {8, 9, 13, 15, 20},
  {7, 9, 14, 17, 19},
  {2, 4, 6, 15, 17},
  {8, 9, 13, 14, 18},
  {2, 6, 8, 12, 20
  }];
  
  



%fixed = [5, 7, 0, 1, 2, 5, 6, 9, 11, 0, 13, 14, 7, 8, 15, 5, 12, 0, 11, 0, 14, 2, 13, 14, 4, 5, 6, 5, 6, 14, 6, 7, 10, 6, 13, 15, 1, 4, 11, 4, 5, 6, 6, 11, 14, 13, 14, 15, 2, 13, 14, 3, 5, 6, 10, 14, 15, 4, 5, 6, 3, 4, 15, 4, 6, 7, 8, 11, 14, 5, 9, 10, 6, 8, 9, 5, 6, 9, 8, 9, 10, 5, 8, 12, 2, 5, 6, 8, 9, 10, 12, 13, 14, 9, 11, 14, 4, 5, 6, 4, 5, 14, 5, 9, 10, 7, 8, 9, 9, 10, 15, 3, 6, 7, 9, 10, 12, 2, 4, 5, 0, 11, 12, 4, 0, 6, 5, 8, 10, 8, 9, 12, 8, 9, 13, 4, 5, 7, 13, 14, 15, 3, 6, 7, 4, 6, 9, 3, 0, 11, 0, 5, 7, 1, 8, 9, 2, 13, 14, 3, 4, 5, 0, 5, 6, 1, 5, 6, 12, 14, 15, 4, 5, 6, 4, 5, 6, 4, 6, 14, 4, 12, 14, 7, 11, 12, 12, 13, 14, 5, 6, 9, 0, 14, 15, 5, 7, 9, 2, 3, 4, 2, 3, 4, 3, 4, 12, 4, 5, 14, 13, 14, 15, 12, 13, 14, 0, 6, 10, 5, 7, 10, 13, 14, 15, 4, 5, 0, 4, 5, 10, 0, 6, 7, 11, 14, 15, 4, 11, 12, 2, 4, 6, 2, 4, 5, 2, 4, 15, 4, 5, 6, 5, 8, 9, 10, 12, 13, 2, 9, 12, 9, 14, 15, 8, 11, 0, 6, 7, 8, 12, 13, 14, 4, 5, 7, 4, 5, 6, 12, 13, 15, 4, 5, 6, 12, 14, 15, 3, 13, 14, 3, 4, 6, 6, 13, 14, 8, 10, 0]